200
100
100
100
100
100
100
99
99
99
98
98
98
95
93
93
92
92
92
92
91
90
90
89
89
89
89
88
88
88
88
87
86
86
86
86
86
85
85
85
84
84
84
83
83
81
81
80
79
77
77
77
75
75
75
75
74
74
74
74
73
73
73
72
71
71
71
71
70
70
70
70
70
69
68
68
68
68
68
67
67
67
66
65
65
65
64
64
63
63
63
62
61
61
60
60
59
59
59
58
58
57
57
57
56
53
53
53
52
52
52
52
51
50
49
49
48
48
48
47
46
45
44
44
44
44
42
42
41
40
40
40
39
39
39
38
38
38
37
37
36
36
36
36
34
34
33
33
33
33
33
33
32
32
32
32
31
30
29
28
27
27
26
26
26
25
24
23
21
21
20
20
17
16
16
15
14
14
14
13
13
13
13
13
12
12
11
11
10
9
9
7
7
7
7
6
5
5
4
4
3
3
